; benchmark generated from python API
(set-info :status unknown)
(declare-fun x_months () Int)
(declare-fun x_beta () Int)
(assert
 (<= (- 1200) x_months))
(assert
 (>= 1199 x_months))
(assert
 (>= x_beta 0))
(assert
 (let ((?x3367 (+ x_months 24003)))
 (let ((?x3878 (- ?x3367 (* (div (- ?x3367 1) 12) 12))))
 (let ((?x2507 (ite (or (= ?x3878 4) (= ?x3878 6) (= ?x3878 9) (= ?x3878 11)) 30 31)))
 (let (($x3697 (and (= (mod (div (- ?x3367 1) 12) 4) 0) (and (distinct (mod (div (- ?x3367 1) 12) 100) 0) true))))
 (let ((?x789 (ite (or $x3697 (= (mod (div (- ?x3367 1) 12) 400) 0)) 29 28)))
 (< x_beta (ite (= ?x3878 2) ?x789 ?x2507))))))))
(assert
 (let (($x2593 (and (= x_months (- (+ (* 2023 12) 1) 24003)) (<= 30 x_beta))))
 (or (> x_months (- (+ (* 2023 12) 1) 24003)) $x2593)))
(assert
 (let ((?x4513 (+ x_beta 1)))
(let ((?x1344 (+ (+ x_months 1) 24003)))
(let ((?x4755 (- ?x1344 (* (div (- ?x1344 1) 12) 12))))
(let ((?x4298 (ite (or (= ?x4755 4) (= ?x4755 6) (= ?x4755 9) (= ?x4755 11)) 30 31)))
(let (($x3593 (and (= (mod (div (- ?x1344 1) 12) 4) 0) (and (distinct (mod (div (- ?x1344 1) 12) 100) 0) true))))
(let (($x4179 (or $x3593 (= (mod (div (- ?x1344 1) 12) 400) 0))))
(let ((?x1697 (ite (= ?x4755 2) (ite $x4179 29 28) ?x4298)))
(let ((?x446 (ite (> 1 ?x4513) 1 (ite (> ?x4513 ?x1697) ?x1697 ?x4513))))
(let ((?x2270 (ite (> 1 ?x446) 1 (ite (> ?x446 ?x1697) ?x1697 ?x446))))
(let ((?x3882 (ite (= 2 ?x4755) (ite $x4179 31 31) (ite (= 1 ?x4755) (ite $x4179 0 0) 0))))
(let ((?x3743 (ite (= 4 ?x4755) (ite $x4179 91 90) (ite (= 3 ?x4755) (ite $x4179 60 59) ?x3882))))
(let ((?x1786 (ite (= 6 ?x4755) (ite $x4179 152 151) (ite (= 5 ?x4755) (ite $x4179 121 120) ?x3743))))
(let ((?x1468 (ite (= 8 ?x4755) (ite $x4179 213 212) (ite (= 7 ?x4755) (ite $x4179 182 181) ?x1786))))
(let ((?x4532 (ite (= 10 ?x4755) (ite $x4179 274 273) (ite (= 9 ?x4755) (ite $x4179 244 243) ?x1468))))
(let ((?x1443 (ite (= 12 ?x4755) (ite $x4179 335 334) (ite (= 11 ?x4755) (ite $x4179 305 304) ?x4532))))
(let ((?x3790 (+ (* 365 (- (div (- ?x1344 1) 12) 1)) (div (- (div (- ?x1344 1) 12) 1) 4))))
(let ((?x4233 (+ (- ?x3790 (div (- (div (- ?x1344 1) 12) 1) 100)) (div (- (div (- ?x1344 1) 12) 1) 400))))
(let ((?x2371 (+ (+ (- (+ (+ ?x4233 ?x1443) (- ?x2270 1)) 730179) 0) 730179)))
(let ((?x4231 (mod ?x2371 146097)))
(let ((?x1874 (div ?x4231 36524)))
(let ((?x4346 (ite (<= 4 ?x1874) 3 ?x1874)))
(let ((?x3993 (- ?x4231 (* ?x4346 36524))))
(let ((?x3126 (mod ?x3993 1461)))
(let ((?x3974 (div ?x3126 365)))
(let ((?x2195 (ite (<= 4 ?x3974) 3 ?x3974)))
(let ((?x4827 (+ (+ (* (div ?x2371 146097) 400) (* ?x4346 100)) (* (div ?x3993 1461) 4))))
(let ((?x896 (+ (+ ?x4827 ?x2195) 1)))
(let (($x3865 (or (and (= (mod ?x896 4) 0) (and (distinct (mod ?x896 100) 0) true)) (= (mod ?x896 400) 0))))
(let ((?x4775 (- ?x3126 (* ?x2195 365))))
(let ((?x727 (ite $x3865 31 31)))
(let (($x1904 (>= ?x4775 ?x727)))
(let ((?x3311 (ite $x1904 (+ (- ?x4775 ?x727) 1) (+ (- ?x4775 (ite $x3865 0 0)) 1))))
(let ((?x2603 (ite $x3865 60 59)))
(let (($x1856 (>= ?x4775 ?x2603)))
(let ((?x2877 (ite $x3865 91 90)))
(let (($x3268 (>= ?x4775 ?x2877)))
(let ((?x2809 (ite $x3268 (+ (- ?x4775 ?x2877) 1) (ite $x1856 (+ (- ?x4775 ?x2603) 1) ?x3311))))
(let ((?x4342 (ite $x3865 121 120)))
(let (($x2202 (>= ?x4775 ?x4342)))
(let ((?x4006 (ite $x3865 152 151)))
(let (($x1971 (>= ?x4775 ?x4006)))
(let ((?x2114 (ite $x1971 (+ (- ?x4775 ?x4006) 1) (ite $x2202 (+ (- ?x4775 ?x4342) 1) ?x2809))))
(let ((?x4002 (ite $x3865 182 181)))
(let (($x2074 (>= ?x4775 ?x4002)))
(let ((?x2340 (ite $x3865 213 212)))
(let (($x2897 (>= ?x4775 ?x2340)))
(let ((?x2290 (ite $x2897 (+ (- ?x4775 ?x2340) 1) (ite $x2074 (+ (- ?x4775 ?x4002) 1) ?x2114))))
(let ((?x4409 (ite $x3865 244 243)))
(let (($x3671 (>= ?x4775 ?x4409)))
(let ((?x1445 (ite $x3865 274 273)))
(let (($x3379 (>= ?x4775 ?x1445)))
(let ((?x1207 (ite $x3379 (+ (- ?x4775 ?x1445) 1) (ite $x3671 (+ (- ?x4775 ?x4409) 1) ?x2290))))
(let ((?x4655 (ite $x3865 305 304)))
(let (($x1883 (>= ?x4775 ?x4655)))
(let ((?x3082 (ite $x3865 335 334)))
(let (($x1762 (>= ?x4775 ?x3082)))
(let ((?x1154 (ite $x1762 (+ (- ?x4775 ?x3082) 1) (ite $x1883 (+ (- ?x4775 ?x4655) 1) ?x1207))))
(let (($x750 (= 0 0)))
(let ((?x4596 (- (+ (* 2023 12) 3) 24003)))
(let ((?x1629 (ite $x2202 5 (ite $x3268 4 (ite $x1856 3 (ite $x1904 2 1))))))
(let ((?x2756 (ite $x3671 9 (ite $x2897 8 (ite $x2074 7 (ite $x1971 6 ?x1629))))))
(let ((?x2655 (+ (* (ite $x750 (div (- ?x1344 1) 12) ?x896) 12) (ite $x750 ?x4755 (ite $x1762 12 (ite $x1883 11 (ite $x3379 10 ?x2756)))))))
(let ((?x4315 (- ?x2655 24003)))
(or (< ?x4315 ?x4596) (and (= ?x4315 ?x4596) (>= 0 (- (ite $x750 ?x2270 ?x1154) 1))))))))))))))))))))))))))))))))))))))))))))))))))))))))))))))))))))
(check-sat)
